WARNING: for repeatability, setting FPU to use double precision
============================[ Problem Statistics ]=============================
|                                                                             |
|  Number of symmetries:          79                                          |
|  Number of invertingSyms:        0                                          |
|  Number of variables:          1640                                         |
|  Number of clauses:           32841                                         |
|  Parse time:                   0.00 s                                       |
|                                                                             |
============================[ Search Statistics ]==============================
| Conflicts |          ORIGINAL         |          LEARNT          | Progress |
|           |    Vars  Clauses Literals |    Limit  Clauses Lit/Cl |          |
===============================================================================
|       100 |    1640    32841    67240 |    12041      100    460 |  0.000 % |
|       250 |    1640    32841    67240 |    13245      250    340 |  0.000 % |
|       475 |    1640    32841    67240 |    14570      475    256 |  0.000 % |
|       812 |    1640    32841    67240 |    16027      812    217 |  0.000 % |
|      1318 |    1640    32841    67240 |    17630     1318    201 |  0.000 % |
|      2077 |    1640    32841    67240 |    19393     2077    200 |  0.000 % |
|      3216 |    1640    32841    67240 |    21332     3216    230 |  0.002 % |
|      4924 |    1640    32841    67240 |    23465     4924    228 |  0.000 % |
|      7486 |    1640    32841    67240 |    25812     7486    248 |  0.000 % |
|     11330 |    1640    32841    67240 |    28393    11330    235 |  0.000 % |
|     17096 |    1640    32841    67240 |    31233    17096    227 |  0.000 % |
|     25745 |    1640    32841    67240 |    34356    25745    227 |  0.000 % |
|     38719 |    1640    32841    67240 |    37792    14900    224 |  0.000 % |
|     58180 |    1640    32841    67240 |    41571    34361    253 |  0.000 % |
|     87372 |    1640    32841    67240 |    45728    33540    245 |  0.000 % |
|    131161 |    1640    32841    67240 |    50301    41921    230 |  0.000 % |
|    196845 |    1640    32841    67240 |    55331    29335    272 |  0.000 % |
|    295371 |    1640    32841    67240 |    60864    39319    252 |  0.000 % |
|    443160 |    1640    32841    67240 |    66950    36144    374 |  0.000 % |
|    664843 |    1640    32841    67240 |    73645    37216    266 |  0.000 % |
|    997368 |    1640    32841    67240 |    81010    57682    320 |  0.000 % |
|   1496156 |    1640    32841    67240 |    89111    78570    323 |  0.000 % |
|   2244338 |    1640    32841    67240 |    98022    58641    384 |  0.000 % |
|   3366612 |    1640    32841    67240 |   107825    78926    291 |  0.000 % |
|   5050023 |    1640    32841    67240 |   118607    50242    366 |  0.000 % |
|   7575139 |    1640    32841    67240 |   130468    45981    299 |  0.000 % |
|  11362814 |    1640    32841    67240 |   143515    91160    597 |  0.000 % |
|  17044326 |    1640    32841    67240 |   157866    50251    328 |  0.000 % |
===============================================================================
restarts              : 32767
conflicts             : 24600966       (4858 /sec)
symconflicts          : 826563         (163 /sec)
decisions             : 60061976       (0.00 % random) (11860 /sec)
propagations          : 590787784      (116654 /sec)
sympropagations       : 3752841        (741 /sec)
conflict literals     : 8565541285     (3.41 % deleted)
Memory used           : 1021.00 MB
CPU time              : 5064.43 s

INDETERMINATE
